p tw 316 669
1 70
1 95
1 123
1 124
1 134
2 69
2 70
2 96
2 97
2 131
2 132
2 136
2 138
2 142
2 174
2 175
2 187
3 68
3 69
3 140
3 144
3 184
3 185
3 189
3 191
3 194
3 238
3 239
3 250
4 68
4 248
4 249
5 6
5 71
5 72
6 9
6 71
6 72
6 73
6 74
7 13
7 82
7 83
8 14
8 77
8 80
8 81
9 15
9 73
9 74
9 76
9 77
9 84
9 85
10 16
10 75
10 76
10 86
10 87
11 17
11 75
11 88
11 89
12 13
12 20
12 78
12 79
12 108
12 109
13 27
13 78
13 79
13 82
13 83
13 118
13 119
14 80
14 81
14 94
14 95
14 101
14 102
14 103
15 21
15 84
15 85
15 92
15 93
15 105
15 106
16 22
16 86
16 87
16 91
16 92
16 111
16 112
17 23
17 88
17 89
17 90
17 91
17 114
17 115
18 24
18 90
18 116
18 117
19 20
19 29
19 99
19 100
19 155
19 156
20 36
20 99
20 100
20 108
20 109
20 168
20 169
21 105
21 106
21 130
21 131
21 148
21 149
21 150
22 30
22 111
22 112
22 128
22 129
22 152
22 153
23 31
23 114
23 115
23 127
23 128
23 158
23 159
24 32
24 116
24 117
24 126
24 127
24 161
24 162
25 33
25 126
25 164
25 165
26 35
26 166
26 167
27 37
27 118
27 119
28 29
28 39
28 146
28 147
28 206
28 207
29 45
29 146
29 147
29 155
29 156
29 221
29 222
30 152
30 153
30 183
30 184
30 199
30 200
30 201
31 40
31 158
31 159
31 181
31 182
31 203
31 204
32 41
32 161
32 162
32 180
32 181
32 209
32 210
33 42
33 164
33 165
33 180
33 212
33 213
34 43
34 179
34 215
34 216
35 44
35 166
35 167
35 178
35 179
35 218
35 219
36 46
36 168
36 169
36 177
36 178
36 224
36 225
37 47
37 177
37 227
37 228
38 39
38 49
38 197
38 198
38 258
38 259
39 53
39 197
39 198
39 206
39 207
39 265
39 266
40 203
40 204
40 247
40 248
40 253
40 254
40 255
41 50
41 209
41 210
41 245
41 246
41 256
41 257
42 212
42 213
42 245
43 51
43 215
43 216
43 244
43 260
43 261
44 52
44 218
44 219
44 243
44 244
44 262
44 263
45 54
45 221
45 222
45 242
45 243
45 268
45 269
46 55
46 224
46 225
46 241
46 242
46 271
46 272
47 56
47 227
47 228
47 241
47 274
47 275
48 49
48 57
48 251
48 252
48 284
48 285
49 59
49 251
49 252
49 258
49 259
49 288
49 289
50 251
50 256
50 257
51 260
51 261
51 283
52 58
52 262
52 263
52 282
52 283
52 286
52 287
53 60
53 265
53 266
53 281
53 282
53 291
53 292
54 61
54 268
54 269
54 280
54 281
54 294
54 295
55 62
55 271
55 272
55 279
55 280
55 297
55 298
56 274
56 275
56 279
57 284
57 285
58 286
58 287
58 304
59 63
59 288
59 289
59 303
59 304
59 305
59 306
60 64
60 291
60 292
60 302
60 303
60 307
60 308
61 65
61 294
61 295
61 301
61 302
61 309
61 310
62 297
62 298
62 301
63 305
63 306
63 312
64 66
64 307
64 308
64 311
64 312
64 313
64 314
65 67
65 309
65 310
65 311
65 315
65 316
66 313
66 314
67 315
67 316
68 69
69 70
71 72
73 74
75 76
76 77
78 79
78 93
78 94
80 81
82 83
84 85
86 87
88 89
90 91
91 92
92 93
93 94
94 95
96 97
96 98
97 98
98 124
98 125
99 100
99 101
99 129
99 130
100 101
101 102
101 103
102 103
102 104
103 104
104 122
104 123
105 106
105 107
106 107
107 121
107 122
108 109
108 110
109 110
110 120
110 121
111 112
111 113
112 113
113 120
114 115
116 117
118 119
120 121
121 122
122 123
123 124
124 125
125 132
125 133
126 127
127 128
128 129
129 130
130 131
131 132
132 133
133 134
133 135
134 135
135 136
135 137
136 137
137 138
137 139
138 139
139 140
139 141
140 141
141 142
141 143
142 143
143 144
143 145
144 145
145 175
145 176
146 147
146 148
146 182
146 183
147 148
148 149
148 150
149 150
149 151
150 151
151 173
151 174
152 153
152 154
153 154
154 172
154 173
155 156
155 157
156 157
157 171
157 172
158 159
158 160
159 160
160 170
160 171
161 162
161 163
162 163
163 170
164 165
166 167
168 169
170 171
171 172
172 173
173 174
174 175
175 176
176 185
176 186
177 178
178 179
180 181
181 182
182 183
183 184
184 185
185 186
186 187
186 188
187 188
188 189
188 190
189 190
190 191
190 192
191 192
192 193
193 194
193 195
194 195
195 196
196 239
196 240
197 198
197 199
197 246
197 247
198 199
199 200
199 201
200 201
200 202
201 202
202 237
202 238
203 204
203 205
204 205
205 236
205 237
206 207
206 208
207 208
208 235
208 236
209 210
209 211
210 211
211 234
211 235
212 213
212 214
213 214
214 234
215 216
215 217
216 217
217 233
218 219
218 220
219 220
220 232
220 233
221 222
221 223
222 223
223 231
223 232
224 225
224 226
225 226
226 230
226 231
227 228
227 229
228 229
229 230
230 231
231 232
232 233
234 235
235 236
236 237
237 238
238 239
239 240
240 249
240 250
241 242
242 243
243 244
245 246
246 247
247 248
248 249
249 250
251 252
251 253
252 253
253 254
253 255
254 255
256 257
258 259
260 261
262 263
262 264
263 264
264 278
265 266
265 267
266 267
267 277
267 278
268 269
268 270
269 270
270 276
270 277
271 272
271 273
272 273
273 276
274 275
276 277
277 278
279 280
280 281
281 282
282 283
284 285
286 287
288 289
288 290
289 290
290 300
291 292
291 293
292 293
293 299
293 300
294 295
294 296
295 296
296 299
297 298
299 300
301 302
302 303
303 304
305 306
307 308
309 310
311 312
313 314
315 316
